
Gurobi 8.1.1 (win64, Python) logging started 08/20/19 20:08:27

Academic license - for non-commercial use only

Gurobi 8.1.1 (win64, Python) logging started 08/20/19 20:38:29

Academic license - for non-commercial use only
